10
26  83  41  75  21  74  53  16  83  21  
46  35  69  89  45  86  98  42  25  86  
15  10  8  89  95  26  67  90  33  60  
60  59  44  1  35  65  76  89  81  59  
10  28  95  80  17  40  66  15  83  92  
2  99  2  10  88  97  37  56  88  70  
16  49  30  60  51  65  26  27  55  7  
87  65  36  82  46  53  23  12  69  7  
5  71  6  7  82  95  5  19  51  94  
90  67  43  20  28  95  86  54  23  41  
